c Random generated cnf formula, satisfiable: false
p cnf 10 50
-6 4 -10 0
9 -6 10 0
3 -6 10 0
1 -3 -10 0
-10 -9 -8 0
-10 -4 1 0
10 -8 -4 0
3 -6 -4 0
1 7 10 0
6 -1 2 0
-2 4 -1 0
3 -1 4 0
-10 -7 2 0
-4 8 -5 0
10 -3 4 0
10 -5 2 0
4 -2 3 0
9 5 -1 0
-9 1 -10 0
-1 10 -4 0
-8 9 -10 0
-9 10 2 0
-6 -3 -8 0
-4 -6 -9 0
10 -5 9 0
-10 -9 -1 0
6 5 3 0
4 -7 -5 0
-2 -3 1 0
8 -1 -7 0
3 9 -4 0
3 10 5 0
9 -6 8 0
9 -8 1 0
7 2 1 0
-6 9 -3 0
4 -10 -3 0
8 -1 4 0
2 4 8 0
-5 -3 -2 0
8 -3 -4 0
-10 7 9 0
-4 -2 -3 0
3 -10 1 0
5 -9 8 0
1 -9 3 0
8 7 -4 0
10 -5 1 0
-6 7 5 0
-3 -6 -5 0
